Hf64 Zr64 Ti64 Nb64 C256
1.0
  18.0000000000000000    0.0000000000000000    0.0000000000000000
   0.0000000000000000   18.0000000000000000    0.0000000000000000
  -0.0000000000000000    0.0000000000000000   18.0000000000000000
C Ti Hf Nb Zr
256 64 64 64 64
direct
   0.1250000000000000    0.1250000000000000    0.8750000000000000 C
   0.1250000000000000    0.2500000000000000    1.0000000000000000 C
   0.2500000000000000    0.1250000000000000    1.0000000000000000 C
   0.1250000000000000    0.1250000000000000    0.6250000000000000 C
   0.1250000000000000    0.2500000000000000    0.7500000000000000 C
   0.1250000000000000    0.3750000000000000    0.8750000000000000 C
   0.1250000000000000    0.5000000000000000    1.0000000000000000 C
   0.2500000000000000    0.1250000000000000    0.7500000000000000 C
   0.2500000000000000    0.2500000000000000    0.8750000000000000 C
   0.2500000000000000    0.3750000000000000    1.0000000000000000 C
   0.3750000000000000    0.1250000000000000    0.8750000000000000 C
   0.3750000000000000    0.2500000000000000    1.0000000000000000 C
   0.5000000000000000    0.1250000000000000    1.0000000000000000 C
   0.1250000000000000    0.1250000000000000    0.3750000000000000 C
   0.1250000000000000    0.2500000000000000    0.5000000000000000 C
   0.1250000000000000    0.3750000000000000    0.6250000000000000 C
   0.1250000000000000    0.5000000000000000    0.7500000000000000 C
   0.1250000000000000    0.6250000000000000    0.8750000000000000 C
   0.1250000000000000    0.7500000000000000    1.0000000000000000 C
   0.2500000000000000    0.1250000000000000    0.5000000000000000 C
   0.2500000000000000    0.2500000000000000    0.6250000000000000 C
   0.2500000000000000    0.3750000000000000    0.7500000000000000 C
   0.2500000000000000    0.5000000000000000    0.8750000000000000 C
   0.2500000000000000    0.6250000000000000    1.0000000000000000 C
   0.3750000000000000    0.1250000000000000    0.6250000000000000 C
   0.3750000000000000    0.2500000000000000    0.7500000000000000 C
   0.3750000000000000    0.3750000000000000    0.8750000000000000 C
   0.3750000000000000    0.5000000000000000    1.0000000000000000 C
   0.5000000000000000    0.1250000000000000    0.7500000000000000 C
   0.5000000000000000    0.2500000000000000    0.8750000000000000 C
   0.5000000000000000    0.3750000000000000    1.0000000000000000 C
   0.6250000000000000    0.1250000000000000    0.8750000000000000 C
   0.6250000000000000    0.2500000000000000    1.0000000000000000 C
   0.7500000000000000    0.1250000000000000    1.0000000000000000 C
   0.1250000000000000    0.1250000000000000    0.1250000000000000 C
   0.1250000000000000    0.2500000000000000    0.2500000000000000 C
   0.1250000000000000    0.3750000000000000    0.3750000000000000 C
   0.1250000000000000    0.5000000000000000    0.5000000000000000 C
   0.1250000000000000    0.6250000000000000    0.6250000000000000 C
   0.1250000000000000    0.7500000000000000    0.7500000000000000 C
   0.1250000000000000    0.8750000000000000    0.8750000000000000 C
   0.1250000000000000    1.0000000000000000    1.0000000000000000 C
   0.2500000000000000    0.1250000000000000    0.2500000000000000 C
   0.2500000000000000    0.2500000000000000    0.3750000000000000 C
   0.2500000000000000    0.3750000000000000    0.5000000000000000 C
   0.2500000000000000    0.5000000000000000    0.6250000000000000 C
   0.2500000000000000    0.6250000000000000    0.7500000000000000 C
   0.2500000000000000    0.7500000000000000    0.8750000000000000 C
   0.2500000000000000    0.8750000000000000    1.0000000000000000 C
   0.3750000000000000    0.1250000000000000    0.3750000000000000 C
   0.3750000000000000    0.2500000000000000    0.5000000000000000 C
   0.3750000000000000    0.3750000000000000    0.6250000000000000 C
   0.3750000000000000    0.5000000000000000    0.7500000000000000 C
   0.3750000000000000    0.6250000000000000    0.8750000000000000 C
   0.3750000000000000    0.7500000000000000    1.0000000000000000 C
   0.5000000000000000    0.1250000000000000    0.5000000000000000 C
   0.5000000000000000    0.2500000000000000    0.6250000000000000 C
   0.5000000000000000    0.3750000000000000    0.7500000000000000 C
   0.5000000000000000    0.5000000000000000    0.8750000000000000 C
   0.5000000000000000    0.6250000000000000    1.0000000000000000 C
   0.6250000000000000    0.1250000000000000    0.6250000000000000 C
   0.6250000000000000    0.2500000000000000    0.7500000000000000 C
   0.6250000000000000    0.3750000000000000    0.8750000000000000 C
   0.6250000000000000    0.5000000000000000    1.0000000000000000 C
   0.7500000000000000    0.1250000000000000    0.7500000000000000 C
   0.7500000000000000    0.2500000000000000    0.8750000000000000 C
   0.7500000000000000    0.3750000000000000    1.0000000000000000 C
   0.8750000000000000    0.1250000000000000    0.8750000000000000 C
   0.8750000000000000    0.2500000000000000    1.0000000000000000 C
   1.0000000000000000    0.1250000000000000    1.0000000000000000 C
   0.1250000000000000    0.3750000000000000    0.1250000000000000 C
   0.1250000000000000    0.5000000000000000    0.2500000000000000 C
   0.1250000000000000    0.6250000000000000    0.3750000000000000 C
   0.1250000000000000    0.7500000000000000    0.5000000000000000 C
   0.1250000000000000    0.8750000000000000    0.6250000000000000 C
   0.1250000000000000    1.0000000000000000    0.7500000000000000 C
   0.2500000000000000    0.2500000000000000    0.1250000000000000 C
   0.2500000000000000    0.3750000000000000    0.2500000000000000 C
   0.2500000000000000    0.5000000000000000    0.3750000000000000 C
   0.2500000000000000    0.6250000000000000    0.5000000000000000 C
   0.2500000000000000    0.7500000000000000    0.6250000000000000 C
   0.2500000000000000    0.8750000000000000    0.7500000000000000 C
   0.2500000000000000    1.0000000000000000    0.8750000000000000 C
   0.3750000000000000    0.1250000000000000    0.1250000000000000 C
   0.3750000000000000    0.2500000000000000    0.2500000000000000 C
   0.3750000000000000    0.3750000000000000    0.3750000000000000 C
   0.3750000000000000    0.5000000000000000    0.5000000000000000 C
   0.3750000000000000    0.6250000000000000    0.6250000000000000 C
   0.3750000000000000    0.7500000000000000    0.7500000000000000 C
   0.3750000000000000    0.8750000000000000    0.8750000000000000 C
   0.3750000000000000    1.0000000000000000    1.0000000000000000 C
   0.5000000000000000    0.1250000000000000    0.2500000000000000 C
   0.5000000000000000    0.2500000000000000    0.3750000000000000 C
   0.5000000000000000    0.3750000000000000    0.5000000000000000 C
   0.5000000000000000    0.5000000000000000    0.6250000000000000 C
   0.5000000000000000    0.6250000000000000    0.7500000000000000 C
   0.5000000000000000    0.7500000000000000    0.8750000000000000 C
   0.5000000000000000    0.8750000000000000    1.0000000000000000 C
   0.6250000000000000    0.1250000000000000    0.3750000000000000 C
   0.6250000000000000    0.2500000000000000    0.5000000000000000 C
   0.6250000000000000    0.3750000000000000    0.6250000000000000 C
   0.6250000000000000    0.5000000000000000    0.7500000000000000 C
   0.6250000000000000    0.6250000000000000    0.8750000000000000 C
   0.6250000000000000    0.7500000000000000    1.0000000000000000 C
   0.7500000000000000    0.1250000000000000    0.5000000000000000 C
   0.7500000000000000    0.2500000000000000    0.6250000000000000 C
   0.7500000000000000    0.3750000000000000    0.7500000000000000 C
   0.7500000000000000    0.5000000000000000    0.8750000000000000 C
   0.7500000000000000    0.6250000000000000    1.0000000000000000 C
   0.8750000000000000    0.1250000000000000    0.6250000000000000 C
   0.8750000000000000    0.2500000000000000    0.7500000000000000 C
   0.8750000000000000    0.3750000000000000    0.8750000000000000 C
   0.8750000000000000    0.5000000000000000    1.0000000000000000 C
   1.0000000000000000    0.1250000000000000    0.7500000000000000 C
   1.0000000000000000    0.2500000000000000    0.8750000000000000 C
   1.0000000000000000    0.3750000000000000    1.0000000000000000 C
   0.1250000000000000    0.6250000000000000    0.1250000000000000 C
   0.1250000000000000    0.7500000000000000    0.2500000000000000 C
   0.1250000000000000    0.8750000000000000    0.3750000000000000 C
   0.1250000000000000    1.0000000000000000    0.5000000000000000 C
   0.2500000000000000    0.5000000000000000    0.1250000000000000 C
   0.2500000000000000    0.6250000000000000    0.2500000000000000 C
   0.2500000000000000    0.7500000000000000    0.3750000000000000 C
   0.2500000000000000    0.8750000000000000    0.5000000000000000 C
   0.2500000000000000    1.0000000000000000    0.6250000000000000 C
   0.3750000000000000    0.3750000000000000    0.1250000000000000 C
   0.3750000000000000    0.5000000000000000    0.2500000000000000 C
   0.3750000000000000    0.6250000000000000    0.3750000000000000 C
   0.3750000000000000    0.7500000000000000    0.5000000000000000 C
   0.3750000000000000    0.8750000000000000    0.6250000000000000 C
   0.3750000000000000    1.0000000000000000    0.7500000000000000 C
   0.5000000000000000    0.2500000000000000    0.1250000000000000 C
   0.5000000000000000    0.3750000000000000    0.2500000000000000 C
   0.5000000000000000    0.5000000000000000    0.3750000000000000 C
   0.5000000000000000    0.6250000000000000    0.5000000000000000 C
   0.5000000000000000    0.7500000000000000    0.6250000000000000 C
   0.5000000000000000    0.8750000000000000    0.7500000000000000 C
   0.5000000000000000    1.0000000000000000    0.8750000000000000 C
   0.6250000000000000    0.1250000000000000    0.1250000000000000 C
   0.6250000000000000    0.2500000000000000    0.2500000000000000 C
   0.6250000000000000    0.3750000000000000    0.3750000000000000 C
   0.6250000000000000    0.5000000000000000    0.5000000000000000 C
   0.6250000000000000    0.6250000000000000    0.6250000000000000 C
   0.6250000000000000    0.7500000000000000    0.7500000000000000 C
   0.6250000000000000    0.8750000000000000    0.8750000000000000 C
   0.6250000000000000    1.0000000000000000    1.0000000000000000 C
   0.7500000000000000    0.1250000000000000    0.2500000000000000 C
   0.7500000000000000    0.2500000000000000    0.3750000000000000 C
   0.7500000000000000    0.3750000000000000    0.5000000000000000 C
   0.7500000000000000    0.5000000000000000    0.6250000000000000 C
   0.7500000000000000    0.6250000000000000    0.7500000000000000 C
   0.7500000000000000    0.7500000000000000    0.8750000000000000 C
   0.7500000000000000    0.8750000000000000    1.0000000000000000 C
   0.8750000000000000    0.1250000000000000    0.3750000000000000 C
   0.8750000000000000    0.2500000000000000    0.5000000000000000 C
   0.8750000000000000    0.3750000000000000    0.6250000000000000 C
   0.8750000000000000    0.5000000000000000    0.7500000000000000 C
   0.8750000000000000    0.6250000000000000    0.8750000000000000 C
   0.8750000000000000    0.7500000000000000    1.0000000000000000 C
   1.0000000000000000    0.1250000000000000    0.5000000000000000 C
   1.0000000000000000    0.2500000000000000    0.6250000000000000 C
   1.0000000000000000    0.3750000000000000    0.7500000000000000 C
   1.0000000000000000    0.5000000000000000    0.8750000000000000 C
   1.0000000000000000    0.6250000000000000    1.0000000000000000 C
   0.1250000000000000    0.8750000000000000    0.1250000000000000 C
   0.1250000000000000    1.0000000000000000    0.2500000000000000 C
   0.2500000000000000    0.7500000000000000    0.1250000000000000 C
   0.2500000000000000    0.8750000000000000    0.2500000000000000 C
   0.2500000000000000    1.0000000000000000    0.3750000000000000 C
   0.3750000000000000    0.6250000000000000    0.1250000000000000 C
   0.3750000000000000    0.7500000000000000    0.2500000000000000 C
   0.3750000000000000    0.8750000000000000    0.3750000000000000 C
   0.3750000000000000    1.0000000000000000    0.5000000000000000 C
   0.5000000000000000    0.5000000000000000    0.1250000000000000 C
   0.5000000000000000    0.6250000000000000    0.2500000000000000 C
   0.5000000000000000    0.7500000000000000    0.3750000000000000 C
   0.5000000000000000    0.8750000000000000    0.5000000000000000 C
   0.5000000000000000    1.0000000000000000    0.6250000000000000 C
   0.6250000000000000    0.3750000000000000    0.1250000000000000 C
   0.6250000000000000    0.5000000000000000    0.2500000000000000 C
   0.6250000000000000    0.6250000000000000    0.3750000000000000 C
   0.6250000000000000    0.7500000000000000    0.5000000000000000 C
   0.6250000000000000    0.8750000000000000    0.6250000000000000 C
   0.6250000000000000    1.0000000000000000    0.7500000000000000 C
   0.7500000000000000    0.2500000000000000    0.1250000000000000 C
   0.7500000000000000    0.3750000000000000    0.2500000000000000 C
   0.7500000000000000    0.5000000000000000    0.3750000000000000 C
   0.7500000000000000    0.6250000000000000    0.5000000000000000 C
   0.7500000000000000    0.7500000000000000    0.6250000000000000 C
   0.7500000000000000    0.8750000000000000    0.7500000000000000 C
   0.7500000000000000    1.0000000000000000    0.8750000000000000 C
   0.8750000000000000    0.1250000000000000    0.1250000000000000 C
   0.8750000000000000    0.2500000000000000    0.2500000000000000 C
   0.8750000000000000    0.3750000000000000    0.3750000000000000 C
   0.8750000000000000    0.5000000000000000    0.5000000000000000 C
   0.8750000000000000    0.6250000000000000    0.6250000000000000 C
   0.8750000000000000    0.7500000000000000    0.7500000000000000 C
   0.8750000000000000    0.8750000000000000    0.8750000000000000 C
   0.8750000000000000    1.0000000000000000    1.0000000000000000 C
   1.0000000000000000    0.1250000000000000    0.2500000000000000 C
   1.0000000000000000    0.2500000000000000    0.3750000000000000 C
   1.0000000000000000    0.3750000000000000    0.5000000000000000 C
   1.0000000000000000    0.5000000000000000    0.6250000000000000 C
   1.0000000000000000    0.6250000000000000    0.7500000000000000 C
   1.0000000000000000    0.7500000000000000    0.8750000000000000 C
   1.0000000000000000    0.8750000000000000    1.0000000000000000 C
   0.2500000000000000    1.0000000000000000    0.1250000000000000 C
   0.3750000000000000    0.8750000000000000    0.1250000000000000 C
   0.3750000000000000    1.0000000000000000    0.2500000000000000 C
   0.5000000000000000    0.7500000000000000    0.1250000000000000 C
   0.5000000000000000    0.8750000000000000    0.2500000000000000 C
   0.5000000000000000    1.0000000000000000    0.3750000000000000 C
   0.6250000000000000    0.6250000000000000    0.1250000000000000 C
   0.6250000000000000    0.7500000000000000    0.2500000000000000 C
   0.6250000000000000    0.8750000000000000    0.3750000000000000 C
   0.6250000000000000    1.0000000000000000    0.5000000000000000 C
   0.7500000000000000    0.5000000000000000    0.1250000000000000 C
   0.7500000000000000    0.6250000000000000    0.2500000000000000 C
   0.7500000000000000    0.7500000000000000    0.3750000000000000 C
   0.7500000000000000    0.8750000000000000    0.5000000000000000 C
   0.7500000000000000    1.0000000000000000    0.6250000000000000 C
   0.8750000000000000    0.3750000000000000    0.1250000000000000 C
   0.8750000000000000    0.5000000000000000    0.2500000000000000 C
   0.8750000000000000    0.6250000000000000    0.3750000000000000 C
   0.8750000000000000    0.7500000000000000    0.5000000000000000 C
   0.8750000000000000    0.8750000000000000    0.6250000000000000 C
   0.8750000000000000    1.0000000000000000    0.7500000000000000 C
   1.0000000000000000    0.2500000000000000    0.1250000000000000 C
   1.0000000000000000    0.3750000000000000    0.2500000000000000 C
   1.0000000000000000    0.5000000000000000    0.3750000000000000 C
   1.0000000000000000    0.6250000000000000    0.5000000000000000 C
   1.0000000000000000    0.7500000000000000    0.6250000000000000 C
   1.0000000000000000    0.8750000000000000    0.7500000000000000 C
   1.0000000000000000    1.0000000000000000    0.8750000000000000 C
   0.5000000000000000    1.0000000000000000    0.1250000000000000 C
   0.6250000000000000    0.8750000000000000    0.1250000000000000 C
   0.6250000000000000    1.0000000000000000    0.2500000000000000 C
   0.7500000000000000    0.7500000000000000    0.1250000000000000 C
   0.7500000000000000    0.8750000000000000    0.2500000000000000 C
   0.7500000000000000    1.0000000000000000    0.3750000000000000 C
   0.8750000000000000    0.6250000000000000    0.1250000000000000 C
   0.8750000000000000    0.7500000000000000    0.2500000000000000 C
   0.8750000000000000    0.8750000000000000    0.3750000000000000 C
   0.8750000000000000    1.0000000000000000    0.5000000000000000 C
   1.0000000000000000    0.5000000000000000    0.1250000000000000 C
   1.0000000000000000    0.6250000000000000    0.2500000000000000 C
   1.0000000000000000    0.7500000000000000    0.3750000000000000 C
   1.0000000000000000    0.8750000000000000    0.5000000000000000 C
   1.0000000000000000    1.0000000000000000    0.6250000000000000 C
   0.7500000000000000    1.0000000000000000    0.1250000000000000 C
   0.8750000000000000    0.8750000000000000    0.1250000000000000 C
   0.8750000000000000    1.0000000000000000    0.2500000000000000 C
   1.0000000000000000    0.7500000000000000    0.1250000000000000 C
   1.0000000000000000    0.8750000000000000    0.2500000000000000 C
   1.0000000000000000    1.0000000000000000    0.3750000000000000 C
   1.0000000000000000    1.0000000000000000    0.1250000000000000 C
   0.3750000000000000    0.8750000000000000    0.7500000000000000 Ti
   0.5000000000000000    0.5000000000000000    1.0000000000000000 Ti
   0.7500000000000000    0.3750000000000000    0.8750000000000000 Ti
   0.3750000000000000    1.0000000000000000    0.8750000000000000 Ti
   0.1250000000000000    0.5000000000000000    0.6250000000000000 Ti
   1.0000000000000000    0.3750000000000000    0.6250000000000000 Ti
   0.1250000000000000    0.3750000000000000    1.0000000000000000 Ti
   0.8750000000000000    0.6250000000000000    1.0000000000000000 Ti
   0.2500000000000000    0.3750000000000000    0.8750000000000000 Ti
   0.2500000000000000    0.7500000000000000    1.0000000000000000 Ti
   0.8750000000000000    0.6250000000000000    0.5000000000000000 Ti
   1.0000000000000000    0.6250000000000000    0.6250000000000000 Ti
   0.8750000000000000    0.6250000000000000    0.2500000000000000 Ti
   0.3750000000000000    0.3750000000000000    0.7500000000000000 Ti
   0.2500000000000000    0.2500000000000000    0.7500000000000000 Ti
   0.7500000000000000    0.7500000000000000    1.0000000000000000 Ti
   0.1250000000000000    0.6250000000000000    0.5000000000000000 Ti
   0.5000000000000000    0.6250000000000000    0.1250000000000000 Ti
   0.2500000000000000    0.2500000000000000    0.2500000000000000 Ti
   0.1250000000000000    0.8750000000000000    0.7500000000000000 Ti
   0.2500000000000000    0.5000000000000000    0.5000000000000000 Ti
   0.2500000000000000    0.6250000000000000    0.6250000000000000 Ti
   0.2500000000000000    0.8750000000000000    0.8750000000000000 Ti
   0.2500000000000000    1.0000000000000000    0.5000000000000000 Ti
   0.3750000000000000    0.5000000000000000    0.6250000000000000 Ti
   0.8750000000000000    0.1250000000000000    1.0000000000000000 Ti
   1.0000000000000000    0.5000000000000000    1.0000000000000000 Ti
   0.6250000000000000    0.5000000000000000    0.8750000000000000 Ti
   0.2500000000000000    0.1250000000000000    0.1250000000000000 Ti
   0.1250000000000000    0.2500000000000000    0.3750000000000000 Ti
   1.0000000000000000    0.6250000000000000    0.1250000000000000 Ti
   0.1250000000000000    0.5000000000000000    0.3750000000000000 Ti
   0.8750000000000000    0.5000000000000000    0.3750000000000000 Ti
   0.6250000000000000    0.8750000000000000    0.5000000000000000 Ti
   0.3750000000000000    0.5000000000000000    0.1250000000000000 Ti
   0.1250000000000000    0.7500000000000000    0.3750000000000000 Ti
   0.3750000000000000    0.7500000000000000    0.6250000000000000 Ti
   0.2500000000000000    0.8750000000000000    0.3750000000000000 Ti
   0.3750000000000000    0.6250000000000000    0.5000000000000000 Ti
   0.5000000000000000    0.6250000000000000    0.6250000000000000 Ti
   0.5000000000000000    0.3750000000000000    0.8750000000000000 Ti
   0.6250000000000000    1.0000000000000000    0.6250000000000000 Ti
   0.8750000000000000    0.2500000000000000    0.8750000000000000 Ti
   0.1250000000000000    0.7500000000000000    0.1250000000000000 Ti
   0.2500000000000000    0.6250000000000000    0.1250000000000000 Ti
   1.0000000000000000    0.7500000000000000    0.2500000000000000 Ti
   0.1250000000000000    0.6250000000000000    0.2500000000000000 Ti
   0.6250000000000000    0.5000000000000000    0.6250000000000000 Ti
   0.5000000000000000    0.5000000000000000    0.5000000000000000 Ti
   1.0000000000000000    0.8750000000000000    0.1250000000000000 Ti
   0.6250000000000000    0.3750000000000000    1.0000000000000000 Ti
   0.7500000000000000    0.2500000000000000    1.0000000000000000 Ti
   0.5000000000000000    0.7500000000000000    0.7500000000000000 Ti
   1.0000000000000000    0.6250000000000000    0.3750000000000000 Ti
   0.2500000000000000    0.1250000000000000    0.6250000000000000 Ti
   0.5000000000000000    0.7500000000000000    0.2500000000000000 Ti
   0.7500000000000000    0.6250000000000000    0.3750000000000000 Ti
   0.8750000000000000    0.5000000000000000    0.8750000000000000 Ti
   0.8750000000000000    0.3750000000000000    0.2500000000000000 Ti
   0.2500000000000000    0.5000000000000000    0.7500000000000000 Ti
   0.6250000000000000    0.7500000000000000    0.1250000000000000 Ti
   0.8750000000000000    0.7500000000000000    0.8750000000000000 Ti
   0.1250000000000000    0.2500000000000000    0.6250000000000000 Ti
   0.8750000000000000    0.5000000000000000    0.1250000000000000 Ti
   0.1250000000000000    1.0000000000000000    0.1250000000000000 Hf
   1.0000000000000000    0.1250000000000000    0.6250000000000000 Hf
   0.1250000000000000    0.8750000000000000    0.5000000000000000 Hf
   0.6250000000000000    0.2500000000000000    0.1250000000000000 Hf
   0.5000000000000000    1.0000000000000000    1.0000000000000000 Hf
   0.7500000000000000    0.6250000000000000    0.8750000000000000 Hf
   0.2500000000000000    0.3750000000000000    0.1250000000000000 Hf
   0.1250000000000000    0.3750000000000000    0.7500000000000000 Hf
   0.3750000000000000    1.0000000000000000    0.6250000000000000 Hf
   0.8750000000000000    1.0000000000000000    0.6250000000000000 Hf
   0.6250000000000000    0.2500000000000000    0.3750000000000000 Hf
   1.0000000000000000    0.2500000000000000    0.2500000000000000 Hf
   0.8750000000000000    0.3750000000000000    0.7500000000000000 Hf
   0.2500000000000000    1.0000000000000000    0.2500000000000000 Hf
   0.7500000000000000    0.8750000000000000    0.3750000000000000 Hf
   0.1250000000000000    0.1250000000000000    0.7500000000000000 Hf
   0.2500000000000000    0.2500000000000000    1.0000000000000000 Hf
   0.1250000000000000    0.7500000000000000    0.6250000000000000 Hf
   0.7500000000000000    0.6250000000000000    0.6250000000000000 Hf
   0.8750000000000000    0.3750000000000000    0.5000000000000000 Hf
   0.1250000000000000    0.5000000000000000    0.1250000000000000 Hf
   0.7500000000000000    0.8750000000000000    0.6250000000000000 Hf
   0.1250000000000000    0.2500000000000000    0.1250000000000000 Hf
   1.0000000000000000    0.1250000000000000    0.1250000000000000 Hf
   1.0000000000000000    0.3750000000000000    0.3750000000000000 Hf
   0.7500000000000000    1.0000000000000000    1.0000000000000000 Hf
   0.6250000000000000    0.2500000000000000    0.6250000000000000 Hf
   1.0000000000000000    0.1250000000000000    0.8750000000000000 Hf
   0.1250000000000000    1.0000000000000000    0.6250000000000000 Hf
   0.1250000000000000    0.6250000000000000    1.0000000000000000 Hf
   0.5000000000000000    0.8750000000000000    0.8750000000000000 Hf
   0.1250000000000000    0.2500000000000000    0.8750000000000000 Hf
   0.6250000000000000    0.1250000000000000    0.2500000000000000 Hf
   0.1250000000000000    0.3750000000000000    0.5000000000000000 Hf
   0.5000000000000000    0.1250000000000000    0.1250000000000000 Hf
   0.7500000000000000    0.2500000000000000    0.2500000000000000 Hf
   0.5000000000000000    0.5000000000000000    0.7500000000000000 Hf
   0.8750000000000000    0.1250000000000000    0.2500000000000000 Hf
   1.0000000000000000    0.3750000000000000    0.1250000000000000 Hf
   0.1250000000000000    0.1250000000000000    0.5000000000000000 Hf
   0.7500000000000000    1.0000000000000000    0.2500000000000000 Hf
   0.3750000000000000    0.3750000000000000    1.0000000000000000 Hf
   0.1250000000000000    0.1250000000000000    1.0000000000000000 Hf
   0.1250000000000000    0.8750000000000000    1.0000000000000000 Hf
   0.5000000000000000    0.2500000000000000    1.0000000000000000 Hf
   0.5000000000000000    0.6250000000000000    0.8750000000000000 Hf
   0.6250000000000000    0.7500000000000000    0.3750000000000000 Hf
   1.0000000000000000    0.7500000000000000    0.7500000000000000 Hf
   0.2500000000000000    0.3750000000000000    0.3750000000000000 Hf
   0.1250000000000000    0.7500000000000000    0.8750000000000000 Hf
   0.5000000000000000    1.0000000000000000    0.2500000000000000 Hf
   0.3750000000000000    0.2500000000000000    0.1250000000000000 Hf
   0.7500000000000000    0.3750000000000000    0.3750000000000000 Hf
   0.1250000000000000    0.8750000000000000    0.2500000000000000 Hf
   1.0000000000000000    0.5000000000000000    0.2500000000000000 Hf
   0.8750000000000000    0.5000000000000000    0.6250000000000000 Hf
   0.8750000000000000    0.2500000000000000    0.1250000000000000 Hf
   0.5000000000000000    0.8750000000000000    0.3750000000000000 Hf
   0.3750000000000000    0.6250000000000000    0.2500000000000000 Hf
   0.7500000000000000    1.0000000000000000    0.5000000000000000 Hf
   0.3750000000000000    0.7500000000000000    0.3750000000000000 Hf
   1.0000000000000000    0.2500000000000000    0.5000000000000000 Hf
   0.6250000000000000    1.0000000000000000    0.8750000000000000 Hf
   0.8750000000000000    0.8750000000000000    0.7500000000000000 Hf
   0.1250000000000000    1.0000000000000000    0.8750000000000000 Nb
   0.3750000000000000    0.5000000000000000    0.3750000000000000 Nb
   1.0000000000000000    0.7500000000000000    1.0000000000000000 Nb
   1.0000000000000000    0.5000000000000000    0.7500000000000000 Nb
   1.0000000000000000    0.2500000000000000    0.7500000000000000 Nb
   0.6250000000000000    0.5000000000000000    0.3750000000000000 Nb
   0.3750000000000000    0.6250000000000000    0.7500000000000000 Nb
   0.6250000000000000    0.6250000000000000    0.2500000000000000 Nb
   0.1250000000000000    0.1250000000000000    0.2500000000000000 Nb
   0.3750000000000000    0.7500000000000000    0.8750000000000000 Nb
   0.7500000000000000    0.7500000000000000    0.2500000000000000 Nb
   0.1250000000000000    0.6250000000000000    0.7500000000000000 Nb
   0.2500000000000000    0.3750000000000000    0.6250000000000000 Nb
   0.8750000000000000    0.1250000000000000    0.5000000000000000 Nb
   0.5000000000000000    0.3750000000000000    0.6250000000000000 Nb
   1.0000000000000000    0.5000000000000000    0.5000000000000000 Nb
   0.6250000000000000    0.1250000000000000    0.7500000000000000 Nb
   0.6250000000000000    0.6250000000000000    0.7500000000000000 Nb
   0.7500000000000000    0.5000000000000000    1.0000000000000000 Nb
   1.0000000000000000    0.1250000000000000    0.3750000000000000 Nb
   0.2500000000000000    1.0000000000000000    1.0000000000000000 Nb
   1.0000000000000000    1.0000000000000000    1.0000000000000000 Nb
   0.3750000000000000    0.1250000000000000    0.2500000000000000 Nb
   0.7500000000000000    0.2500000000000000    0.5000000000000000 Nb
   0.6250000000000000    0.3750000000000000    0.7500000000000000 Nb
   0.7500000000000000    0.1250000000000000    0.1250000000000000 Nb
   0.1250000000000000    0.5000000000000000    0.8750000000000000 Nb
   0.3750000000000000    0.2500000000000000    0.6250000000000000 Nb
   0.7500000000000000    1.0000000000000000    0.7500000000000000 Nb
   0.2500000000000000    0.8750000000000000    0.6250000000000000 Nb
   0.6250000000000000    0.6250000000000000    0.5000000000000000 Nb
   1.0000000000000000    1.0000000000000000    0.7500000000000000 Nb
   0.5000000000000000    0.8750000000000000    0.6250000000000000 Nb
   0.3750000000000000    0.5000000000000000    0.8750000000000000 Nb
   0.8750000000000000    0.8750000000000000    0.2500000000000000 Nb
   0.3750000000000000    0.8750000000000000    1.0000000000000000 Nb
   1.0000000000000000    0.2500000000000000    1.0000000000000000 Nb
   0.2500000000000000    0.7500000000000000    0.5000000000000000 Nb
   0.7500000000000000    0.6250000000000000    0.1250000000000000 Nb
   0.6250000000000000    0.2500000000000000    0.8750000000000000 Nb
   0.2500000000000000    0.7500000000000000    0.2500000000000000 Nb
   0.2500000000000000    0.5000000000000000    0.2500000000000000 Nb
   1.0000000000000000    0.6250000000000000    0.8750000000000000 Nb
   0.7500000000000000    0.1250000000000000    0.8750000000000000 Nb
   0.2500000000000000    0.7500000000000000    0.7500000000000000 Nb
   0.5000000000000000    0.7500000000000000    0.5000000000000000 Nb
   0.6250000000000000    0.8750000000000000    0.7500000000000000 Nb
   0.8750000000000000    0.1250000000000000    0.7500000000000000 Nb
   0.3750000000000000    0.6250000000000000    1.0000000000000000 Nb
   0.8750000000000000    0.7500000000000000    0.1250000000000000 Nb